%chk=wittig.chk
%mem=6000MB
%nprocshared=4
# b3lyp/def2svp EmpiricalDispersion=GD3

ketone !neb=(inter=12,maxiter=30,init=idpp)

0 1
 C   -2.298534    0.362554   -0.353670
 O   -1.964804    1.209751    0.456601
 H   -2.238614    0.563685   -1.448977
 P    1.114048   -0.145363   -0.096405
 C    2.934176   -0.522733   -0.049404
 H    3.072383   -1.564748    0.278179
 H    3.344325   -0.423601   -1.066386
 H    3.480681    0.149900    0.632291
 C    1.070551    1.620002   -0.554024
 H    0.059841    2.000475   -0.346677
 H    1.818312    2.190821    0.016442
 H    1.289577    1.712451   -1.628730
 C    0.618975   -0.271265    1.655092
 H    1.355838    0.217640    2.309619
 H   -0.365322    0.206522    1.765164
 H    0.546005   -1.335786    1.925303
 C    0.048056   -1.037589   -1.073003
 H    0.147954   -0.881348   -2.153043
 H   -0.119692   -2.075630   -0.764780
 C   -3.003296   -0.916507    0.025721
 H   -4.091698   -0.717040    0.028980
 H   -2.797505   -1.716639   -0.697350
 H   -2.713940   -1.231045    1.038959

olefin

0 1
 C    2.530034    0.010936   -0.352471
 O   -0.538517    0.252380   -1.386550
 H    1.805977   -0.501916   -0.997393
 P   -1.293259   -0.030955   -0.114935
 C   -1.319650    1.367382    1.063646
 H   -0.284123    1.587328    1.362767
 H   -1.731581    2.250087    0.551652
 H   -1.923468    1.142589    1.956327
 C   -3.053689   -0.444715   -0.392473
 H   -3.536960    0.398907   -0.908150
 H   -3.107902   -1.326799   -1.048360
 H   -3.583090   -0.653033    0.550048
 C   -0.629775   -1.434453    0.852713
 H   -0.617814   -2.329662    0.212751
 H    0.404265   -1.194910    1.141147
 H   -1.231412   -1.632183    1.753167
 C    2.292795    1.299525   -0.083974
 H    1.412880    1.786003   -0.512261
 H    2.964539    1.894966    0.545576
 C    3.698631   -0.787817    0.145245
 H    3.364061   -1.674344    0.713837
 H    4.301242   -1.173322   -0.696397
 H    4.360337   -0.193576    0.795597



